Route #1: 0 98 3 91 7 30 29 118 114 137 16 124 109 45 20 54 0
Route #2: 0 79 121 73 110 35 58 80 97 13 74 10 88 0
Route #3: 0 50 123 115 34 131 38 69 94 108 22 9 26 23 4 0
Route #4: 0 70 62 27 31 41 78 120 133 64 93 127 106 82 105 0
Route #5: 0 122 111 92 107 132 130 77 46 21 103 28 63 104 81 89 0
Route #6: 0 56 84 51 39 8 15 65 48 66 117 72 44 57 0
Route #7: 0 99 2 36 49 129 53 96 5 6 61 19 113 90 12 0
Route #8: 0 87 52 126 95 85 24 125 25 112 32 75 138 76 0
Route #9: 0 71 100 102 33 135 14 134 40 37 17 11 101 136 86 0
Route #10: 0 43 55 18 1 83 68 116 128 119 47 59 60 42 67 0
Cost 17027:
